1 0 4 -1 5 3 8 5 0 -1 
-1 1 -1 5 1 4 9 1 -1 -1 
0 3 6 2 0 8 7 10 0 -1 
4 7 3 6 8 -1 -1 -1 9 -1 
9 2 10 10 6 4 9 8 7 -1 
5 4 8 8 6 0 2 1 8 -1 
5 5 6 6 4 -1 2 7 1 -1 
8 1 8 1 1 0 8 1 8 -1 
5 7 2 -1 7 -1 2 8 3 -1 
1 0 9 3 6 6 1 1 9 -1 
